300
400 400
1 280 129
2 280 540
3 278 874
4 276 497
5 276 643
6 275 854
7 272 90
8 272 751
9 272 312
10 271 561
11 270 96
12 270 580
13 269 206
14 269 758
15 269 355
16 269 739
17 269 659
18 268 73
19 267 847
20 266 231
21 266 263
22 266 245
23 266 852
24 266 901
25 264 471
26 263 740
27 263 920
28 263 301
29 263 345
30 262 147
31 262 54
32 262 545
33 261 803
34 261 962
35 260 30
36 260 391
37 260 197
38 259 467
39 259 348
40 258 634
41 258 119
42 258 649
43 258 105
44 257 546
45 257 365
46 256 231
47 256 531
48 256 893
49 255 111
50 255 579
51 254 307
52 252 846
53 251 354
54 251 719
55 251 903
56 251 356
57 248 878
58 247 318
59 246 322
60 244 855
61 244 988
62 244 551
63 243 661
64 243 147
65 243 110
66 243 580
67 242 672
68 240 66
69 239 462
70 237 299
71 236 745
72 235 822
73 233 748
74 233 47
75 232 902
76 230 251
77 230 261
78 229 122
79 228 134
80 227 5
81 227 88
82 227 720
83 227 510
84 227 294
85 227 535
86 227 891
87 224 655
88 224 715
89 224 0
90 221 655
91 221 123
92 221 184
93 219 109
94 218 363
95 218 492
96 218 280
97 216 654
98 216 34
99 216 38
100 215 816
101 215 386
102 213 559
103 213 94
104 213 708
105 211 433
106 210 331
107 209 213
108 209 307
109 209 891
110 208 880
111 208 531
112 207 755
113 207 825
114 207 46
115 207 652
116 206 522
117 205 8
118 204 963
119 203 795
120 203 63
121 203 236
122 202 143
123 202 556
124 200 615
125 199 259
126 199 581
127 198 323
128 198 414
129 197 749
130 196 761
131 196 317
132 195 175
133 194 191
134 194 686
135 191 217
136 191 461
137 190 870
138 188 94
139 188 606
140 187 590
141 187 616
142 187 460
143 186 984
144 185 286
145 185 228
146 184 753
147 184 640
148 184 314
149 184 234
150 183 263
151 183 560
152 182 107
153 181 899
154 180 153
155 180 257
156 179 964
157 178 11
158 178 130
159 177 994
160 176 667
161 173 357
162 173 365
163 173 335
164 172 829
165 172 501
166 170 719
167 168 53
168 168 547
169 168 646
170 168 705
171 167 226
172 167 886
173 167 630
174 167 882
175 164 1000
176 164 257
177 164 775
178 162 473
179 161 288
180 160 790
181 159 596
182 159 210
183 158 520
184 158 756
185 157 586
186 157 796
187 157 713
188 155 761
189 155 806
190 153 439
191 153 732
192 153 797
193 153 824
194 152 319
195 152 695
196 150 536
197 148 335
198 148 513
199 147 730
200 147 590
201 146 786
202 143 432
203 143 283
204 141 462
205 140 459
206 140 903
207 138 11
208 138 622
209 136 186
210 136 596
211 135 706
212 134 733
213 133 683
214 133 755
215 132 672
216 132 645
217 131 297
218 130 537
219 130 550
220 126 213
221 126 58
222 125 391
223 124 992
224 124 793
225 123 335
226 121 75
227 121 154
228 121 114
229 121 506
230 120 183
231 119 282
232 119 448
233 119 119
234 117 201
235 117 147
236 116 266
237 115 153
238 115 72
239 115 554
240 114 385
241 114 336
242 113 339
243 113 244
244 112 352
245 112 612
246 111 789
247 110 278
248 109 840
249 107 112
250 106 396
251 106 89
252 106 928
253 105 999
254 105 577
255 105 765
256 104 43
257 104 571
258 103 96
259 103 880
260 102 949
261 102 425
262 102 511
263 101 543
264 100 98
265 100 412
266 99 704
267 99 783
268 99 33
269 97 548
270 96 793
271 96 972
272 96 821
273 96 547
274 95 799
275 95 826
276 94 119
277 94 75
278 94 323
279 94 363
280 94 953
281 93 188
282 93 719
283 93 704
284 92 879
285 92 975
286 91 661
287 91 424
288 90 329
289 89 942
290 89 999
291 87 250
292 86 407
293 86 360
294 83 883
295 82 889
296 82 455
297 81 717
298 80 725
299 80 794
300 80 324
